91	78	23	57	78	46	78	57	97	94
59	47	63	61	36	53	68	53	18	93
84	61	5	25	25	94	51	94	8	100
1	64	32	52	8	37	8	81	47	82
100	100	67	29	25	95	14	44	38	1
94	86	40	28	12	50	38	10	37	9
29	83	27	95	7	96	53	70	8	10
62	96	63	65	84	3	60	62	18	1
95	51	32	83	8	5	53	23	98	4
20	47	12	94	72	18	10	30	32	32
